
Gurobi 11.0.1 (win64) logging started Mon Apr  1 12:51:18 2024

Set parameter LogFile to value "C:\Projetos\Job_Rotation_Algorithms\Outputs\GurobiLogs\gurobi_log-output-9_ton-c103-CostaMirallesModel-NoExtraConstraint-2.log"
Gurobi Optimizer version 11.0.1 build v11.0.1rc0 (win64 - Windows 10.0 (19045.2))

CPU model: 11th Gen Intel(R) Core(TM) i7-1165G7 @ 2.80GHz, instruction set [SSE2|AVX|AVX2|AVX512]
Thread count: 4 physical cores, 8 logical processors, using up to 1 threads


Gurobi 11.0.1 (win64) logging started Mon Apr  1 21:39:02 2024

Set parameter LogFile to value "C:\Projetos\Job_Rotation_Algorithms\Outputs\GurobiLogs\gurobi_log-output-9_ton-c103-CostaMirallesModel-NoExtraConstraint-2.log"
Gurobi Optimizer version 11.0.1 build v11.0.1rc0 (win64 - Windows 10.0 (19045.2))

CPU model: 11th Gen Intel(R) Core(TM) i7-1165G7 @ 2.80GHz, instruction set [SSE2|AVX|AVX2|AVX512]
Thread count: 4 physical cores, 8 logical processors, using up to 1 threads


Gurobi 11.0.1 (win64) logging started Thu Apr  4 23:36:23 2024

Set parameter LogFile to value "C:\Projetos\Job_Rotation_Algorithms\Outputs\GurobiLogs\gurobi_log-output-9_ton-c103-CostaMirallesModel-NoExtraConstraint-2.log"
Gurobi Optimizer version 11.0.1 build v11.0.1rc0 (win64 - Windows 10.0 (19045.2))

CPU model: 11th Gen Intel(R) Core(TM) i7-1165G7 @ 2.80GHz, instruction set [SSE2|AVX|AVX2|AVX512]
Thread count: 4 physical cores, 8 logical processors, using up to 1 threads


Gurobi 11.0.1 (win64) logging started Sat Apr  6 13:06:53 2024

Set parameter LogFile to value "C:\Projetos\Job_Rotation_Algorithms\Outputs\GurobiLogs\gurobi_log-output-9_ton-c103-CostaMirallesModel-NoExtraConstraint-2.log"
Gurobi Optimizer version 11.0.1 build v11.0.1rc0 (win64 - Windows 10.0 (19045.2))

CPU model: 11th Gen Intel(R) Core(TM) i7-1165G7 @ 2.80GHz, instruction set [SSE2|AVX|AVX2|AVX512]
Thread count: 4 physical cores, 8 logical processors, using up to 1 threads


Gurobi 11.0.1 (win64) logging started Sun Apr  7 02:38:48 2024

Set parameter LogFile to value "C:\Projetos\Job_Rotation_Algorithms\Outputs\GurobiLogs\gurobi_log-output-9_ton-c103-CostaMirallesModel-NoExtraConstraint-2.log"
Gurobi Optimizer version 11.0.1 build v11.0.1rc0 (win64 - Windows 10.0 (19045.2))

CPU model: 11th Gen Intel(R) Core(TM) i7-1165G7 @ 2.80GHz, instruction set [SSE2|AVX|AVX2|AVX512]
Thread count: 4 physical cores, 8 logical processors, using up to 1 threads


Gurobi 11.0.1 (win64) logging started Sun Apr  7 09:51:45 2024

Set parameter LogFile to value "C:\Projetos\Job_Rotation_Algorithms\Outputs\GurobiLogs\gurobi_log-output-9_ton-c103-CostaMirallesModel-NoExtraConstraint-2.log"
Gurobi Optimizer version 11.0.1 build v11.0.1rc0 (win64 - Windows 10.0 (19045.2))

CPU model: 11th Gen Intel(R) Core(TM) i7-1165G7 @ 2.80GHz, instruction set [SSE2|AVX|AVX2|AVX512]
Thread count: 4 physical cores, 8 logical processors, using up to 1 threads


Gurobi 11.0.1 (win64) logging started Wed Apr 10 17:40:47 2024

Set parameter LogFile to value "C:\Projetos\Job_Rotation_Algorithms\Outputs\GurobiLogs\gurobi_log-output-9_ton-c103-CostaMirallesModel-NoExtraConstraint-2.log"
Gurobi Optimizer version 11.0.1 build v11.0.1rc0 (win64 - Windows 10.0 (19045.2))

CPU model: 11th Gen Intel(R) Core(TM) i7-1165G7 @ 2.80GHz, instruction set [SSE2|AVX|AVX2|AVX512]
Thread count: 4 physical cores, 8 logical processors, using up to 1 threads


Gurobi 11.0.1 (win64) logging started Thu Apr 11 01:45:28 2024

Set parameter LogFile to value "C:\Projetos\Job_Rotation_Algorithms\Outputs\GurobiLogs\gurobi_log-output-9_ton-c103-CostaMirallesModel-NoExtraConstraint-2.log"
Gurobi Optimizer version 11.0.1 build v11.0.1rc0 (win64 - Windows 10.0 (19045.2))

CPU model: 11th Gen Intel(R) Core(TM) i7-1165G7 @ 2.80GHz, instruction set [SSE2|AVX|AVX2|AVX512]
Thread count: 4 physical cores, 8 logical processors, using up to 1 threads


Gurobi 11.0.1 (win64) logging started Sun Apr 21 03:02:30 2024

Set parameter LogFile to value "C:\Projetos\Job_Rotation_Algorithms\Outputs\GurobiLogs\gurobi_log-output-9_ton-c103-CostaMirallesModel-NoExtraConstraint-2.log"
Gurobi Optimizer version 11.0.1 build v11.0.1rc0 (win64 - Windows 10.0 (19045.2))

CPU model: 11th Gen Intel(R) Core(TM) i7-1165G7 @ 2.80GHz, instruction set [SSE2|AVX|AVX2|AVX512]
Thread count: 4 physical cores, 8 logical processors, using up to 1 threads


Gurobi 11.0.1 (win64) logging started Fri Apr 26 07:44:25 2024

Set parameter LogFile to value "C:\Projetos\Job_Rotation_Algorithms\Outputs\GurobiLogs\gurobi_log-output-9_ton-c103-CostaMirallesModel-NoExtraConstraint-2.log"
Gurobi Optimizer version 11.0.1 build v11.0.1rc0 (win64 - Windows 10.0 (19045.2))

CPU model: 11th Gen Intel(R) Core(TM) i7-1165G7 @ 2.80GHz, instruction set [SSE2|AVX|AVX2|AVX512]
Thread count: 4 physical cores, 8 logical processors, using up to 1 threads


Gurobi 11.0.1 (win64) logging started Sat Apr 27 04:35:29 2024

Set parameter LogFile to value "C:\Projetos\Job_Rotation_Algorithms\Outputs\GurobiLogs\gurobi_log-output-9_ton-c103-CostaMirallesModel-NoExtraConstraint-2.log"
Gurobi Optimizer version 11.0.1 build v11.0.1rc0 (win64 - Windows 10.0 (19045.2))

CPU model: 11th Gen Intel(R) Core(TM) i7-1165G7 @ 2.80GHz, instruction set [SSE2|AVX|AVX2|AVX512]
Thread count: 4 physical cores, 8 logical processors, using up to 1 threads


Gurobi 11.0.1 (win64) logging started Sat Apr 27 14:53:38 2024

Set parameter LogFile to value "C:\Projetos\Job_Rotation_Algorithms\Outputs\GurobiLogs\gurobi_log-output-9_ton-c103-CostaMirallesModel-NoExtraConstraint-2.log"
Gurobi Optimizer version 11.0.1 build v11.0.1rc0 (win64 - Windows 10.0 (19045.2))

CPU model: 11th Gen Intel(R) Core(TM) i7-1165G7 @ 2.80GHz, instruction set [SSE2|AVX|AVX2|AVX512]
Thread count: 4 physical cores, 8 logical processors, using up to 1 threads


Gurobi 11.0.1 (win64) logging started Mon May  6 08:25:01 2024

Set parameter LogFile to value "C:\Projetos\Job_Rotation_Algorithms\Outputs\GurobiLogs\gurobi_log-output-9_ton-c103-CostaMirallesModel-NoExtraConstraint-2.log"
Gurobi Optimizer version 11.0.1 build v11.0.1rc0 (win64 - Windows 10.0 (19045.2))

CPU model: 11th Gen Intel(R) Core(TM) i7-1165G7 @ 2.80GHz, instruction set [SSE2|AVX|AVX2|AVX512]
Thread count: 4 physical cores, 8 logical processors, using up to 1 threads

WLS license 901038 - registered to Bitka Analytics
Optimize a model with 2780 rows, 13453 columns and 205203 nonzeros
Model fingerprint: 0x2cbf71e1
Variable types: 2 continuous, 13451 integer (13451 binary)
Coefficient statistics:
  Matrix range     [1e+00, 2e+02]
  Objective range  [1e+00, 1e+00]
  Bounds range     [1e+00, 2e+02]
  RHS range        [1e+00, 2e+02]
Presolve added 468 rows and 0 columns
Presolve removed 0 rows and 697 columns
Presolve time: 1.31s
Presolved: 3248 rows, 12756 columns, 96521 nonzeros
Variable types: 0 continuous, 12756 integer (12110 binary)

Root relaxation: objective 1.400000e+02, 3553 iterations, 0.25 seconds (0.32 work units)

    Nodes    |    Current Node    |     Objective Bounds      |     Work
 Expl Unexpl |  Obj  Depth IntInf | Incumbent    BestBd   Gap | It/Node Time

     0     0  140.00000    0   94          -  140.00000      -     -    2s
     0     0  140.00000    0   91          -  140.00000      -     -    2s
     0     0  140.00000    0   91          -  140.00000      -     -    2s
     0     0  140.00000    0   89          -  140.00000      -     -    5s
     0     0  140.00000    0  813          -  140.00000      -     -    6s
     0     0  140.00000    0  810          -  140.00000      -     -    6s
     0     0  140.00000    0  120          -  140.00000      -     -    8s
     0     0  140.00000    0  212          -  140.00000      -     -    8s
     0     0  140.00000    0  148          -  140.00000      -     -    8s
     0     0  140.00000    0  211          -  140.00000      -     -    9s
     0     0  140.00000    0  144          -  140.00000      -     -    9s
     0     0  140.00000    0  144          -  140.00000      -     -    9s
     0     2  140.00000    0  136          -  140.00000      -     -   11s
   140   111  140.00000   22  201          -  140.00000      -   145   15s
   383   248  140.00000   93  119          -  140.00000      -   129   20s
   690   401  140.00000   70  157          -  140.00000      -   116   25s
   704   409  140.00000   94   91          -  140.00000      -   120   33s
   708   412  140.00000   33 1025          -  140.00000      -   119   35s
   712   414  140.00000   43  578          -  140.00000      -   119   40s
   717   418  140.00000   83  202          -  140.00000      -   118   45s
   786   464  140.00000   46  457          -  140.00000      -   205   50s
   804   468  140.00000   29  571          -  140.00000      -   204   55s
   893   492  140.00000   53  489          -  140.00000      -   199   60s
  1060   490  140.00000   52  142          -  140.00000      -   182   65s
  1230   460  140.00000   50  110          -  140.00000      -   168   70s
  1423   459  140.00000   57  170          -  140.00000      -   155   75s
  1650   405  137.00000   63  191          -  140.00000      -   143   80s
  1924   401  139.70321   83  239          -  140.00000      -   133   85s
  2317   426 infeasible   79               -  140.00000      -   118   90s
  2540   538  140.00000   57  422          -  140.00000      -   114   95s
  2745   619  140.00000   62  346          -  140.00000      -   111  100s
  2825   650  140.00000   74  180          -  140.00000      -   110  112s
  2837   650  140.00000   69  165          -  140.00000      -   111  115s
  2869   660  140.00000   65  201          -  140.00000      -   113  120s
  3009   701  140.00000   64  340          -  140.00000      -   112  125s
  3301   765  140.00000   68  278          -  140.00000      -   108  130s
  3522   799  140.00000   59  117          -  140.00000      -   108  135s
  3821   891  140.00000   66  286          -  140.00000      -   106  140s
  4206   968  139.93217   76  400          -  140.00000      -   102  145s
  4527  1028 infeasible   89               -  140.00000      -   101  150s
  4803  1088 infeasible   83               -  140.00000      -   100  155s
  5101  1163 infeasible   73               -  140.00000      -  97.3  160s
  5398  1229  140.00000   87  354          -  140.00000      -  95.8  165s
  5763  1286 infeasible   81               -  140.00000      -  93.4  170s
  6127  1371 infeasible   79               -  140.00000      -  91.1  175s
  6470  1512  140.00000   66  236          -  140.00000      -  89.8  180s
  6920  1634 infeasible   88               -  140.00000      -  87.9  185s
  7276  1690  140.00000   72  216          -  140.00000      -  87.1  190s
  7594  1808  140.00000   56  316          -  140.00000      -  86.7  195s
  7822  1835 infeasible   62               -  140.00000      -  86.3  200s
  8220  1890  137.00000   72  127          -  140.00000      -  84.7  205s
  8537  1971  140.00000   84  287          -  140.00000      -  84.4  210s
  8770  1994 infeasible   79               -  140.00000      -  84.1  215s
  9171  2040 infeasible  100               -  140.00000      -  82.5  220s
  9496  2038  140.00000   80  270          -  140.00000      -  81.6  225s
  9787  2074 infeasible   80               -  140.00000      -  81.0  230s
 10067  2086 infeasible   76               -  140.00000      -  80.9  235s
 10202  2085 infeasible   77               -  140.00000      -  80.6  284s
 10255  2075 infeasible   82               -  140.00000      -  80.3  285s
 10507  2150  140.00000   58  226          -  140.00000      -  80.3  290s
 10807  2288  140.00000   83  160          -  140.00000      -  79.9  295s
 11236  2356 infeasible   97               -  140.00000      -  79.0  300s
 11666  2463 infeasible   96               -  140.00000      -  77.9  305s
 12062  2591  140.00000  114  151          -  140.00000      -  77.3  310s
 12584  2686  140.00000  112  164          -  140.00000      -  75.9  315s
 13106  2732 infeasible   81               -  140.00000      -  74.6  320s
 13545  2855 infeasible   63               -  140.00000      -  74.0  325s
 13937  2944 infeasible   87               -  140.00000      -  73.8  330s
 14326  3115  140.00000   73  218          -  140.00000      -  73.5  335s
 14719  3276  140.00000   81  285          -  140.00000      -  73.3  340s
 15234  3438  140.00000   79  110          -  140.00000      -  72.4  345s
 15469  3492 infeasible   88               -  140.00000      -  72.2  350s
 15911  3572 infeasible   87               -  140.00000      -  71.8  355s
 16327  3649 infeasible   93               -  140.00000      -  71.8  360s
 16782  3683 infeasible   89               -  140.00000      -  71.6  365s
 17129  3746  140.00000   62  418          -  140.00000      -  71.6  370s
 17524  3821 infeasible  106               -  140.00000      -  71.4  375s
 18047  3868  139.00000   84  104          -  140.00000      -  70.8  380s
 18438  3986  140.00000  103  169          -  140.00000      -  70.8  385s
 18954  4182 infeasible  100               -  140.00000      -  70.4  390s
 19430  4250 infeasible   92               -  140.00000      -  70.0  395s
 19865  4328 infeasible   81               -  140.00000      -  69.6  400s
 20222  4367 infeasible  102               -  140.00000      -  69.6  405s
 20491  4404 infeasible  106               -  140.00000      -  69.3  410s
 20889  4376 infeasible   93               -  140.00000      -  68.9  415s
 21230  4417 infeasible   89               -  140.00000      -  69.0  420s
 21547  4424 infeasible   80               -  140.00000      -  69.0  425s
 22196  4473  140.00000   92  130          -  140.00000      -  67.8  430s
 22671  4475 infeasible   86               -  140.00000      -  67.3  435s
 23180  4627 infeasible   94               -  140.00000      -  66.7  440s
 23807  4766 infeasible  107               -  140.00000      -  65.8  445s
 24351  4880 infeasible  103               -  140.00000      -  65.2  450s
 24906  4866 infeasible   86               -  140.00000      -  64.3  455s
 24949  4874  140.00000  104  139          -  140.00000      -  64.3  460s
 25026  4815  140.00000   69  121          -  140.00000      -  64.5  465s
 25240  4896  140.00000   81  249          -  140.00000      -  64.6  470s
 25505  5003 infeasible   90               -  140.00000      -  65.0  476s
 25934  5088 infeasible  108               -  140.00000      -  64.4  480s
 26411  5144 infeasible   87               -  140.00000      -  64.1  485s
 26683  5184  140.00000   75  263          -  140.00000      -  64.5  490s
 26932  5289 infeasible   85               -  140.00000      -  64.8  495s
 27324  5402 infeasible   65               -  140.00000      -  64.6  500s
 27706  5480  140.00000   75  182          -  140.00000      -  64.5  505s
 27976  5542 infeasible   98               -  140.00000      -  64.8  510s
 28348  5567 infeasible   77               -  140.00000      -  65.0  515s
 28764  5649 infeasible  102               -  140.00000      -  65.0  520s
 29186  5711  140.00000   82  156          -  140.00000      -  64.9  525s
 29517  5749  140.00000   86  330          -  140.00000      -  65.1  530s
 29939  5791  140.00000   72  380          -  140.00000      -  65.0  535s
 30180  5859  139.00000   76  199          -  140.00000      -  65.3  540s
 30420  5951  136.54104   87  328          -  140.00000      -  65.6  545s
 30609  6019  140.00000   76  319          -  140.00000      -  65.7  550s
 30914  6064  140.00000   76  112          -  140.00000      -  65.9  555s
 31199  6092  139.85907   95  288          -  140.00000      -  66.3  560s
 31565  6094 infeasible   82               -  140.00000      -  66.5  565s
 31847  6164 infeasible   73               -  140.00000      -  66.7  570s
 32269  6214  140.00000   69  436          -  140.00000      -  66.7  575s
 32420  6265  140.00000   75  222          -  140.00000      -  67.1  580s
 32797  6328 infeasible   68               -  140.00000      -  67.1  585s
 33033  6423  140.00000   56  273          -  140.00000      -  67.4  590s
 33285  6483 infeasible   80               -  140.00000      -  67.5  595s
 33721  6530  140.00000   88   74          -  140.00000      -  67.3  600s
 34019  6587  140.00000   89   56          -  140.00000      -  67.4  608s
 34044  6572 infeasible   82               -  140.00000      -  67.4  610s
 34266  6625  140.00000   86  155          -  140.00000      -  67.4  615s
 35109  6723 infeasible  101               -  140.00000      -  66.3  620s
 35707  6752  140.00000  106   44          -  140.00000      -  65.5  626s
 36247  6775 infeasible  117               -  140.00000      -  64.9  630s
 36860  6777 infeasible   89               -  140.00000      -  64.1  635s
 37346  6831  140.00000   85  182          -  140.00000      -  64.1  640s
 37707  6810  140.00000   78  458          -  140.00000      -  64.1  645s
 38135  6843 infeasible   87               -  140.00000      -  64.2  650s
 38542  6865  139.32487   97  186          -  140.00000      -  64.2  655s
 38867  6932  140.00000   62  209          -  140.00000      -  64.3  660s
 39070  7031 infeasible   85               -  140.00000      -  64.7  665s
 39299  7064  140.00000   61   71          -  140.00000      -  65.1  670s
 39809  7248 infeasible   72               -  140.00000      -  64.9  675s
 40182  7350 infeasible   65               -  140.00000      -  65.1  680s
 40376  7405  140.00000   44  116          -  140.00000      -  65.4  685s
 40636  7519  140.00000   61  361          -  140.00000      -  65.7  690s
 40808  7621  140.00000   73  289          -  140.00000      -  65.9  695s
 41018  7695 infeasible   69               -  140.00000      -  66.0  700s
 41208  7740  140.00000   66  290          -  140.00000      -  66.3  705s
 41470  7846  140.00000   84  196          -  140.00000      -  66.6  710s
 41678  7887  140.00000   69  253          -  140.00000      -  66.8  715s
 41903  7962 infeasible   76               -  140.00000      -  67.1  720s
 42129  7992 infeasible   68               -  140.00000      -  67.3  725s
 42408  8038 infeasible   93               -  140.00000      -  67.4  730s
 42504  8064  140.00000   75  366          -  140.00000      -  67.8  735s
 42678  8131  140.00000   76  195          -  140.00000      -  68.1  740s
 42782  8157  140.00000   73  603          -  140.00000      -  68.5  745s
 43061  8215  140.00000   55  159          -  140.00000      -  68.6  750s
 43139  8257  140.00000   53  436          -  140.00000      -  68.8  755s
 43233  8286  140.00000   56  519          -  140.00000      -  68.9  760s
 43513  8364 infeasible   76               -  140.00000      -  69.1  765s
 43813  8500  140.00000   58  110          -  140.00000      -  69.3  770s
 44009  8599  140.00000   61  192          -  140.00000      -  69.7  775s
 44184  8673  140.00000   59  367          -  140.00000      -  70.0  780s
 44488  8669  140.00000   53  177          -  140.00000      -  70.1  785s
 44684  8735  140.00000   55  392          -  140.00000      -  70.2  790s
 44858  8778  140.00000   85  368          -  140.00000      -  70.5  795s
 45090  8859  140.00000   84  317          -  140.00000      -  70.6  800s
 45293  8918  140.00000   87  452          -  140.00000      -  70.9  805s
 45492  8936  139.99634   72  133          -  140.00000      -  71.1  810s
 45809  8936  140.00000   95  207          -  140.00000      -  71.2  815s
 45956  8905  140.00000   24  656          -  140.00000      -  71.2  820s
 46086  9001  140.00000   58  439          -  140.00000      -  71.4  825s
 46440  9107  140.00000   60  118          -  140.00000      -  71.3  830s
 46954  9243 infeasible  102               -  140.00000      -  70.9  835s
 47386  9287  140.00000   88   50          -  140.00000      -  70.7  843s
 47407  9276  140.00000   60   91          -  140.00000      -  70.7  845s
 47805  9399 infeasible   88               -  140.00000      -  70.5  850s
 48147  9457 infeasible   73               -  140.00000      -  70.5  855s
 48623  9549  139.86289   84  257          -  140.00000      -  70.3  860s
 49110  9599  140.00000   69  241          -  140.00000      -  70.0  865s
 49579  9726 infeasible   69               -  140.00000      -  70.0  870s
 50090  9860  139.90059   86  182          -  140.00000      -  69.8  875s
 50461  9913  140.00000   75  180          -  140.00000      -  69.8  880s
 50948 10006 infeasible   87               -  140.00000      -  69.6  885s
 51256 10092 infeasible   75               -  140.00000      -  69.5  890s
 51600 10215 infeasible   99               -  140.00000      -  69.4  895s
 51991 10209 infeasible  103               -  140.00000      -  69.3  900s
 52334 10200 infeasible   73               -  140.00000      -  69.2  905s
 52754 10246 infeasible   82               -  140.00000      -  69.2  910s
 53253 10298  140.00000   73  160          -  140.00000      -  68.9  915s
 53690 10314 infeasible   97               -  140.00000      -  68.8  920s
 54148 10386  138.59436   77  430          -  140.00000      -  68.6  925s
 54655 10521 infeasible  107               -  140.00000      -  68.4  930s
 55070 10562 infeasible  106               -  140.00000      -  68.3  935s
 55480 10567 infeasible   84               -  140.00000      -  68.1  940s
 55484 10564  140.00000   93  200          -  140.00000      -  68.1  947s
 55520 10532 infeasible   71               -  140.00000      -  68.2  950s
 55572 10510  140.00000   39  193          -  140.00000      -  68.2  955s
 55725 10602 infeasible   61               -  140.00000      -  68.3  960s
 56111 10742 infeasible   85               -  140.00000      -  68.3  967s
 56422 10778 infeasible  102               -  140.00000      -  68.1  970s
 56776 10847  140.00000   55  339          -  140.00000      -  68.1  975s
 57232 11038 infeasible   86               -  140.00000      -  68.0  980s
 57870 11191 infeasible  101               -  140.00000      -  67.6  985s
 58572 11256 infeasible   89               -  140.00000      -  67.2  990s
 59154 11345 infeasible  108               -  140.00000      -  67.0  995s
 59707 11388  140.00000   68  171          -  140.00000      -  66.8 1000s
 60277 11461 infeasible   77               -  140.00000      -  66.5 1005s
 60669 11510 infeasible   91               -  140.00000      -  66.5 1010s
 61138 11592 infeasible   87               -  140.00000      -  66.3 1015s
 61338 11628  140.00000   50  249          -  140.00000      -  66.3 1020s
 61570 11749 infeasible   77               -  140.00000      -  66.5 1025s
 61767 11790  138.78581   74  292          -  140.00000      -  66.7 1030s
 62014 11817  140.00000   74  168          -  140.00000      -  66.9 1035s
 62416 11930 infeasible   81               -  140.00000      -  66.9 1040s
 62777 11994  140.00000   56  292          -  140.00000      -  66.9 1045s
 63114 12094 infeasible   75               -  140.00000      -  67.0 1050s
 63624 12156 infeasible   90               -  140.00000      -  66.7 1055s
 63938 12181 infeasible   80               -  140.00000      -  66.8 1060s
 64347 12223 infeasible   86               -  140.00000      -  66.7 1065s
 64602 12180 infeasible   80               -  140.00000      -  66.8 1070s
 64941 12174 infeasible   68               -  140.00000      -  66.8 1075s
 65438 12236 infeasible   99               -  140.00000      -  66.6 1080s
 65903 12254 infeasible  104               -  140.00000      -  66.5 1085s
 66242 12286 infeasible   56               -  140.00000      -  66.6 1090s
 66384 12326 infeasible   77               -  140.00000      -  66.6 1095s
 66643 12350 infeasible   82               -  140.00000      -  66.8 1100s
 67074 12339 infeasible   75               -  140.00000      -  66.8 1105s
 67475 12404 infeasible   90               -  140.00000      -  66.9 1110s
 67802 12512 infeasible   63               -  140.00000      -  67.0 1115s
 68054 12607 infeasible   72               -  140.00000      -  67.1 1120s
 68385 12670 infeasible   62               -  140.00000      -  67.3 1125s
 68711 12717  140.00000   71  139          -  140.00000      -  67.3 1130s
 68979 12825 infeasible   70               -  140.00000      -  67.5 1135s
H69225 12866                     131.0000000  140.00000  6.87%  67.5 1141s
H69225 12851                     133.0000000  140.00000  5.26%  67.5 1141s
H69225 12478                     137.0000000  140.00000  2.19%  67.5 1141s
H69252 12050                     138.0000000  140.00000  1.45%  67.5 1143s
H69252 10313                     139.0000000  140.00000  0.72%  67.5 1143s
 69254 10311  140.00000   26   91  139.00000  140.00000  0.72%  67.5 1216s
H69255  9796                     140.0000000  140.00000  0.00%  67.5 1216s

Explored 69255 nodes (4692028 simplex iterations) in 1216.73 seconds (802.33 work units)
Thread count was 1 (of 8 available processors)

Solution count 6: 140 139 138 ... 131

Optimal solution found (tolerance 1.00e-03)
Best objective 1.400000000000e+02, best bound 1.400000000000e+02, gap 0.0000%
